\ Model RRP
\ LP format - for model browsing. Use MPS format to capture full model detail.
Minimize
  6 x_kij[0,0,1] + 8 x_kij[0,0,2] + 12 x_kij[0,0,3] + 100 x_kij[0,0,4]
   + 100 x_kij[0,0,5] + 100 x_kij[0,0,6] + 100 x_kij[0,0,7]
   + 6 x_kij[0,1,0] + 7 x_kij[0,1,2] + 5 x_kij[0,1,3] + 100 x_kij[0,1,4]
   + 15 x_kij[0,1,5] + 100 x_kij[0,1,6] + 100 x_kij[0,1,7] + 8 x_kij[0,2,0]
   + 7 x_kij[0,2,1] + 4 x_kij[0,2,3] + 15 x_kij[0,2,4] + 100 x_kij[0,2,5]
   + 100 x_kij[0,2,6] + 100 x_kij[0,2,7] + 12 x_kij[0,3,0] + 5 x_kij[0,3,1]
   + 4 x_kij[0,3,2] + 10 x_kij[0,3,4] + 7 x_kij[0,3,5] + 15 x_kij[0,3,6]
   + 100 x_kij[0,3,7] + 100 x_kij[0,4,0] + 100 x_kij[0,4,1]
   + 15 x_kij[0,4,2] + 10 x_kij[0,4,3] + 7 x_kij[0,4,5] + 8 x_kij[0,4,6]
   + 6 x_kij[0,4,7] + 100 x_kij[0,5,0] + 15 x_kij[0,5,1] + 100 x_kij[0,5,2]
   + 7 x_kij[0,5,3] + 7 x_kij[0,5,4] + 4 x_kij[0,5,6] + 100 x_kij[0,5,7]
   + 100 x_kij[0,6,0] + 100 x_kij[0,6,1] + 100 x_kij[0,6,2]
   + 15 x_kij[0,6,3] + 8 x_kij[0,6,4] + 4 x_kij[0,6,5] + 5 x_kij[0,6,7]
   + 100 x_kij[0,7,0] + 100 x_kij[0,7,1] + 100 x_kij[0,7,2]
   + 100 x_kij[0,7,3] + 6 x_kij[0,7,4] + 100 x_kij[0,7,5] + 5 x_kij[0,7,6]
Subject To
 R0: x_kij[0,0,1] + x_kij[0,0,2] + x_kij[0,0,3] + x_kij[0,0,7] = 1
 R1: x_kij[0,0,7] + x_kij[0,4,7] + x_kij[0,5,7] + x_kij[0,6,7] = 1
 R2: - x_kij[0,0,0] - x_kij[0,0,1] - x_kij[0,0,2] - x_kij[0,0,3]
   - x_kij[0,0,4] - x_kij[0,0,5] - x_kij[0,0,6] + x_kij[0,1,0]
   + x_kij[0,2,0] + x_kij[0,3,0] + x_kij[0,4,0] + x_kij[0,5,0]
   + x_kij[0,6,0] + x_kij[0,7,0] = 0
 R3: - x_kij[0,1,0] - x_kij[0,1,2] - x_kij[0,1,3] - x_kij[0,1,4]
   - x_kij[0,1,5] - x_kij[0,1,6] + x_kij[0,2,1] + x_kij[0,3,1]
   + x_kij[0,4,1] + x_kij[0,5,1] + x_kij[0,6,1] + x_kij[0,7,1] = 0
 R4: x_kij[0,1,2] - x_kij[0,2,0] - x_kij[0,2,1] - x_kij[0,2,3]
   - x_kij[0,2,4] - x_kij[0,2,5] - x_kij[0,2,6] + x_kij[0,3,2]
   + x_kij[0,4,2] + x_kij[0,5,2] + x_kij[0,6,2] + x_kij[0,7,2] = 0
 R5: x_kij[0,1,3] + x_kij[0,2,3] - x_kij[0,3,0] - x_kij[0,3,1]
   - x_kij[0,3,2] - x_kij[0,3,4] - x_kij[0,3,5] - x_kij[0,3,6]
   + x_kij[0,4,3] + x_kij[0,5,3] + x_kij[0,6,3] + x_kij[0,7,3] = 0
 R6: x_kij[0,1,4] + x_kij[0,2,4] + x_kij[0,3,4] - x_kij[0,4,0]
   - x_kij[0,4,1] - x_kij[0,4,2] - x_kij[0,4,3] - x_kij[0,4,5]
   - x_kij[0,4,6] + x_kij[0,5,4] + x_kij[0,6,4] + x_kij[0,7,4] = 0
 R7: x_kij[0,1,5] + x_kij[0,2,5] + x_kij[0,3,5] + x_kij[0,4,5]
   - x_kij[0,5,0] - x_kij[0,5,1] - x_kij[0,5,2] - x_kij[0,5,3]
   - x_kij[0,5,4] - x_kij[0,5,6] + x_kij[0,6,5] + x_kij[0,7,5] = 0
 R8: x_kij[0,1,6] + x_kij[0,2,6] + x_kij[0,3,6] + x_kij[0,4,6]
   + x_kij[0,5,6] - x_kij[0,6,0] - x_kij[0,6,1] - x_kij[0,6,2]
   - x_kij[0,6,3] - x_kij[0,6,4] - x_kij[0,6,5] + x_kij[0,7,6] = 0
 R9: x_kij[0,1,7] + x_kij[0,2,7] + x_kij[0,3,7] + x_kij[0,4,7]
   + x_kij[0,5,7] + x_kij[0,6,7] - x_kij[0,7,0] - x_kij[0,7,1]
   - x_kij[0,7,2] - x_kij[0,7,3] - x_kij[0,7,4] - x_kij[0,7,5]
   - x_kij[0,7,6] + x_kij[0,7,7] = 0
 R10: x_kij[0,1,0] + x_kij[0,2,0] + x_kij[0,3,0] - x_kij[0,4,0]
   - x_kij[0,5,0] - x_kij[0,6,0] = 0
 R11: x_kij[0,1,1] + x_kij[0,2,1] + x_kij[0,3,1] - x_kij[0,4,1]
   - x_kij[0,5,1] - x_kij[0,6,1] = 0
 R12: x_kij[0,1,2] + x_kij[0,2,2] + x_kij[0,3,2] - x_kij[0,4,2]
   - x_kij[0,5,2] - x_kij[0,6,2] = 0
 R13: x_kij[0,1,3] + x_kij[0,2,3] + x_kij[0,3,3] - x_kij[0,4,3]
   - x_kij[0,5,3] - x_kij[0,6,3] = 0
 R14: x_kij[0,1,4] + x_kij[0,2,4] + x_kij[0,3,4] - x_kij[0,4,4]
   - x_kij[0,5,4] - x_kij[0,6,4] = 0
 R15: x_kij[0,1,5] + x_kij[0,2,5] + x_kij[0,3,5] - x_kij[0,4,5]
   - x_kij[0,5,5] - x_kij[0,6,5] = 0
 R16: x_kij[0,1,6] + x_kij[0,2,6] + x_kij[0,3,6] - x_kij[0,4,6]
   - x_kij[0,5,6] - x_kij[0,6,6] = 0
 R17: x_kij[0,1,7] + x_kij[0,2,7] + x_kij[0,3,7] - x_kij[0,4,7]
   - x_kij[0,5,7] - x_kij[0,6,7] = 0
 R18: x_kij[0,1,0] + x_kij[0,1,1] + x_kij[0,1,2] + x_kij[0,1,3]
   + x_kij[0,1,4] + x_kij[0,1,5] + x_kij[0,1,6] + x_kij[0,1,7] - z_i[1]
   = 0
 R19: x_kij[0,2,0] + x_kij[0,2,1] + x_kij[0,2,2] + x_kij[0,2,3]
   + x_kij[0,2,4] + x_kij[0,2,5] + x_kij[0,2,6] + x_kij[0,2,7] - z_i[2]
   = 0
 R20: x_kij[0,3,0] + x_kij[0,3,1] + x_kij[0,3,2] + x_kij[0,3,3]
   + x_kij[0,3,4] + x_kij[0,3,5] + x_kij[0,3,6] + x_kij[0,3,7] - z_i[3]
   = 0
 R21: t_ki[0,1] - t_ki[0,4] <= -100
 R22: t_ki[0,2] - t_ki[0,5] <= -100
 R23: t_ki[0,3] - t_ki[0,6] <= -15
 R24: 100000 x_kij[0,0,1] + t_ki[0,0] - t_ki[0,1] <= 99994
 R25: 100000 x_kij[0,0,2] + t_ki[0,0] - t_ki[0,2] <= 99992
 R26: 100000 x_kij[0,0,3] + t_ki[0,0] - t_ki[0,3] <= 99988
 R27: 100000 x_kij[0,0,4] + t_ki[0,0] - t_ki[0,4] <= 99900
 R28: 100000 x_kij[0,0,5] + t_ki[0,0] - t_ki[0,5] <= 99900
 R29: 100000 x_kij[0,0,6] + t_ki[0,0] - t_ki[0,6] <= 99900
 R30: 100000 x_kij[0,0,7] + t_ki[0,0] - t_ki[0,7] <= 99900
 R31: 100000 x_kij[0,1,0] - t_ki[0,0] + t_ki[0,1] <= 99994
 R32: 100000 x_kij[0,1,2] + t_ki[0,1] - t_ki[0,2] <= 99993
 R33: 100000 x_kij[0,1,3] + t_ki[0,1] - t_ki[0,3] <= 99995
 R34: 100000 x_kij[0,1,4] + t_ki[0,1] - t_ki[0,4] <= 99900
 R35: 100000 x_kij[0,1,5] + t_ki[0,1] - t_ki[0,5] <= 99985
 R36: 100000 x_kij[0,1,6] + t_ki[0,1] - t_ki[0,6] <= 99900
 R37: 100000 x_kij[0,1,7] + t_ki[0,1] - t_ki[0,7] <= 99900
 R38: 100000 x_kij[0,2,0] - t_ki[0,0] + t_ki[0,2] <= 99992
 R39: 100000 x_kij[0,2,1] - t_ki[0,1] + t_ki[0,2] <= 99993
 R40: 100000 x_kij[0,2,3] + t_ki[0,2] - t_ki[0,3] <= 99996
 R41: 100000 x_kij[0,2,4] + t_ki[0,2] - t_ki[0,4] <= 99985
 R42: 100000 x_kij[0,2,5] + t_ki[0,2] - t_ki[0,5] <= 99900
 R43: 100000 x_kij[0,2,6] + t_ki[0,2] - t_ki[0,6] <= 99900
 R44: 100000 x_kij[0,2,7] + t_ki[0,2] - t_ki[0,7] <= 99900
 R45: 100000 x_kij[0,3,0] - t_ki[0,0] + t_ki[0,3] <= 99988
 R46: 100000 x_kij[0,3,1] - t_ki[0,1] + t_ki[0,3] <= 99995
 R47: 100000 x_kij[0,3,2] - t_ki[0,2] + t_ki[0,3] <= 99996
 R48: 100000 x_kij[0,3,4] + t_ki[0,3] - t_ki[0,4] <= 99990
 R49: 100000 x_kij[0,3,5] + t_ki[0,3] - t_ki[0,5] <= 99993
 R50: 100000 x_kij[0,3,6] + t_ki[0,3] - t_ki[0,6] <= 99985
 R51: 100000 x_kij[0,3,7] + t_ki[0,3] - t_ki[0,7] <= 99900
 R52: 100000 x_kij[0,4,0] - t_ki[0,0] + t_ki[0,4] <= 99900
 R53: 100000 x_kij[0,4,1] - t_ki[0,1] + t_ki[0,4] <= 99900
 R54: 100000 x_kij[0,4,2] - t_ki[0,2] + t_ki[0,4] <= 99985
 R55: 100000 x_kij[0,4,3] - t_ki[0,3] + t_ki[0,4] <= 99990
 R56: 100000 x_kij[0,4,5] + t_ki[0,4] - t_ki[0,5] <= 99993
 R57: 100000 x_kij[0,4,6] + t_ki[0,4] - t_ki[0,6] <= 99992
 R58: 100000 x_kij[0,4,7] + t_ki[0,4] - t_ki[0,7] <= 99994
 R59: 100000 x_kij[0,5,0] - t_ki[0,0] + t_ki[0,5] <= 99900
 R60: 100000 x_kij[0,5,1] - t_ki[0,1] + t_ki[0,5] <= 99985
 R61: 100000 x_kij[0,5,2] - t_ki[0,2] + t_ki[0,5] <= 99900
 R62: 100000 x_kij[0,5,3] - t_ki[0,3] + t_ki[0,5] <= 99993
 R63: 100000 x_kij[0,5,4] - t_ki[0,4] + t_ki[0,5] <= 99993
 R64: 100000 x_kij[0,5,6] + t_ki[0,5] - t_ki[0,6] <= 99996
 R65: 100000 x_kij[0,5,7] + t_ki[0,5] - t_ki[0,7] <= 99900
 R66: 100000 x_kij[0,6,0] - t_ki[0,0] + t_ki[0,6] <= 99900
 R67: 100000 x_kij[0,6,1] - t_ki[0,1] + t_ki[0,6] <= 99900
 R68: 100000 x_kij[0,6,2] - t_ki[0,2] + t_ki[0,6] <= 99900
 R69: 100000 x_kij[0,6,3] - t_ki[0,3] + t_ki[0,6] <= 99985
 R70: 100000 x_kij[0,6,4] - t_ki[0,4] + t_ki[0,6] <= 99992
 R71: 100000 x_kij[0,6,5] - t_ki[0,5] + t_ki[0,6] <= 99996
 R72: 100000 x_kij[0,6,7] + t_ki[0,6] - t_ki[0,7] <= 99995
 R73: 100000 x_kij[0,7,0] - t_ki[0,0] + t_ki[0,7] <= 99900
 R74: 100000 x_kij[0,7,1] - t_ki[0,1] + t_ki[0,7] <= 99900
 R75: 100000 x_kij[0,7,2] - t_ki[0,2] + t_ki[0,7] <= 99900
 R76: 100000 x_kij[0,7,3] - t_ki[0,3] + t_ki[0,7] <= 99900
 R77: 100000 x_kij[0,7,4] - t_ki[0,4] + t_ki[0,7] <= 99994
 R78: 100000 x_kij[0,7,5] - t_ki[0,5] + t_ki[0,7] <= 99900
 R79: 100000 x_kij[0,7,6] - t_ki[0,6] + t_ki[0,7] <= 99995
 R80: t_ki[0,4] >= 30
 R81: t_ki[0,5] >= 30
 R82: t_ki[0,6] >= 15
 R83: t_ki[0,4] <= 90
 R84: t_ki[0,5] <= 90
 R85: t_ki[0,6] <= 30
 R86: t_ki[0,7] >= 30
 R87: t_ki[0,7] <= 45
 R88: - t_ki[0,1] + t_ki[0,4] <= 100
 R89: - t_ki[0,2] + t_ki[0,5] <= 100
 R90: - t_ki[0,3] + t_ki[0,6] <= 100
 R91: - t_ki[0,0] + t_ki[0,7] <= 100
 R92: x_kij[0,1,0] + x_kij[0,1,1] + x_kij[0,1,2] + x_kij[0,1,3]
   + x_kij[0,1,4] + x_kij[0,1,5] + x_kij[0,1,6] + x_kij[0,1,7]
   + x_kij[0,2,0] + x_kij[0,2,1] + x_kij[0,2,2] + x_kij[0,2,3]
   + x_kij[0,2,4] + x_kij[0,2,5] + x_kij[0,2,6] + x_kij[0,2,7]
   + x_kij[0,3,0] + x_kij[0,3,1] + x_kij[0,3,2] + x_kij[0,3,3]
   + x_kij[0,3,4] + x_kij[0,3,5] + x_kij[0,3,6] + x_kij[0,3,7] <= 4
Bounds
Binaries
 x_kij[0,0,0] x_kij[0,0,1] x_kij[0,0,2] x_kij[0,0,3] x_kij[0,0,4]
 x_kij[0,0,5] x_kij[0,0,6] x_kij[0,0,7] x_kij[0,1,0] x_kij[0,1,1]
 x_kij[0,1,2] x_kij[0,1,3] x_kij[0,1,4] x_kij[0,1,5] x_kij[0,1,6]
 x_kij[0,1,7] x_kij[0,2,0] x_kij[0,2,1] x_kij[0,2,2] x_kij[0,2,3]
 x_kij[0,2,4] x_kij[0,2,5] x_kij[0,2,6] x_kij[0,2,7] x_kij[0,3,0]
 x_kij[0,3,1] x_kij[0,3,2] x_kij[0,3,3] x_kij[0,3,4] x_kij[0,3,5]
 x_kij[0,3,6] x_kij[0,3,7] x_kij[0,4,0] x_kij[0,4,1] x_kij[0,4,2]
 x_kij[0,4,3] x_kij[0,4,4] x_kij[0,4,5] x_kij[0,4,6] x_kij[0,4,7]
 x_kij[0,5,0] x_kij[0,5,1] x_kij[0,5,2] x_kij[0,5,3] x_kij[0,5,4]
 x_kij[0,5,5] x_kij[0,5,6] x_kij[0,5,7] x_kij[0,6,0] x_kij[0,6,1]
 x_kij[0,6,2] x_kij[0,6,3] x_kij[0,6,4] x_kij[0,6,5] x_kij[0,6,6]
 x_kij[0,6,7] x_kij[0,7,0] x_kij[0,7,1] x_kij[0,7,2] x_kij[0,7,3]
 x_kij[0,7,4] x_kij[0,7,5] x_kij[0,7,6] x_kij[0,7,7] z_i[1] z_i[2] z_i[3]
End
